GLPSOL--GLPK LP/MIP Solver 5.0
Parameter(s) specified in the command line:
 --cpxlp --first inputs/new_no_tr/order/jump_3_25_default_input.lp -o solutions/new_no_tr/jump_3_25_default_input.lp
Reading problem data from 'inputs/new_no_tr/order/jump_3_25_default_input.lp'...
inputs/new_no_tr/order/jump_3_25_default_input.lp:2933: warning: lower bound of variable 'm_1_1' redefined
inputs/new_no_tr/order/jump_3_25_default_input.lp:2933: warning: upper bound of variable 'm_1_1' redefined
2794 rows, 1276 columns, 8264 non-zeros
1276 integer variables, 1144 of which are binary
4183 lines were read
GLPK Integer Optimizer 5.0
2794 rows, 1276 columns, 8264 non-zeros
1276 integer variables, 1144 of which are binary
Preprocessing...
14 hidden packing inequaliti(es) were detected
187 hidden covering inequaliti(es) were detected
544 constraint coefficient(s) were reduced
2597 rows, 1109 columns, 7547 non-zeros
1109 integer variables, 1083 of which are binary
Scaling...
 A: min|aij| =  1.000e+00  max|aij| =  1.024e+04  ratio =  1.024e+04
GM: min|aij| =  4.451e-01  max|aij| =  2.246e+00  ratio =  5.047e+00
EQ: min|aij| =  1.997e-01  max|aij| =  1.000e+00  ratio =  5.008e+00
2N: min|aij| =  1.250e-01  max|aij| =  1.438e+00  ratio =  1.150e+01
Constructing initial basis...
Size of triangular part is 2325
Solving LP relaxation...
GLPK Simplex Optimizer 5.0
2597 rows, 1109 columns, 7547 non-zeros
      0: obj =   2.764800000e+04 inf =   9.388e+01 (68)
    751: obj =   3.916018539e+04 inf =   1.044e-14 (0) 7
*  1031: obj =   2.764800000e+04 inf =   1.312e-13 (0) 2
OPTIMAL LP SOLUTION FOUND
Integer optimization begins...
Long-step dual simplex will be used
+  1031: mip =     not found yet >=              -inf        (1; 0)
+ 27649: mip =     not found yet >=   2.764800000e+04        (48; 80)
+ 54562: mip =     not found yet >=   3.017800000e+04        (58; 176)
+ 83437: mip =     not found yet >=   3.017800000e+04        (116; 192)
+110662: mip =     not found yet >=   3.030900000e+04        (166; 210)
+138362: mip =     not found yet >=   3.043800000e+04        (210; 229)
+166785: mip =     not found yet >=   3.075400000e+04        (266; 268)
+195342: mip =     not found yet >=   3.093500000e+04        (314; 298)
+222702: mip =     not found yet >=   3.115900000e+04        (349; 350)
+250545: mip =     not found yet >=   3.167300000e+04        (386; 410)
+278670: mip =     not found yet >=   3.215600000e+04        (462; 443)
+308465: mip =     not found yet >=   3.235000000e+04        (534; 464)
Time used: 60.1 secs.  Memory used: 8.2 Mb.
+337867: mip =     not found yet >=   3.251000000e+04        (605; 487)
+367305: mip =     not found yet >=   3.273700000e+04        (690; 515)
+385856: >>>>>   6.348800000e+04 >=   3.276800000e+04  48.4% (768; 558)
+414589: mip =   6.348800000e+04 >=   3.280200000e+04  48.3% (832; 617)
+443391: mip =   6.348800000e+04 >=   3.294600000e+04  48.1% (901; 641)
+471465: mip =   6.348800000e+04 >=   3.311300000e+04  47.8% (948; 678)
+499321: mip =   6.348800000e+04 >=   3.329800000e+04  47.6% (1021; 731)
Solution found by heuristic: 55296
+527226: mip =   5.529600000e+04 >=   3.346100000e+04  39.5% (1120; 799)
+555617: mip =   5.529600000e+04 >=   3.359600000e+04  39.2% (1195; 848)
+584139: mip =   5.529600000e+04 >=   3.376300000e+04  38.9% (1253; 904)
+598634: >>>>>   5.324800000e+04 >=   3.379200000e+04  36.5% (1310; 929)
+607510: >>>>>   5.120000000e+04 >=   3.379200000e+04  34.0% (1337; 982)
+609483: >>>>>   4.812800000e+04 >=   3.379200000e+04  29.8% (1343; 1004)
+626347: >>>>>   4.710400000e+04 >=   3.379200000e+04  28.3% (1352; 1132)
+638933: >>>>>   4.608000000e+04 >=   3.379200000e+04  26.7% (1318; 1273)
+664512: >>>>>   4.505600000e+04 >=   3.379200000e+04  25.0% (1374; 1366)
Time used: 120.1 secs.  Memory used: 15.0 Mb.
+695259: mip =   4.505600000e+04 >=   3.379200000e+04  25.0% (1395; 1581)
+724732: mip =   4.505600000e+04 >=   3.379200000e+04  25.0% (1466; 1628)
+754168: mip =   4.505600000e+04 >=   3.379200000e+04  25.0% (1528; 1674)
+783551: mip =   4.505600000e+04 >=   3.379200000e+04  25.0% (1583; 1740)
+813160: mip =   4.505600000e+04 >=   3.379200000e+04  25.0% (1654; 1790)
+842009: mip =   4.505600000e+04 >=   3.393000000e+04  24.7% (1693; 1872)
+871397: mip =   4.505600000e+04 >=   3.405800000e+04  24.4% (1746; 1922)
+899260: mip =   4.505600000e+04 >=   3.420300000e+04  24.1% (1761; 1987)
+927901: mip =   4.505600000e+04 >=   3.438600000e+04  23.7% (1776; 2084)
+956807: mip =   4.505600000e+04 >=   3.460000000e+04  23.2% (1811; 2160)
+987196: mip =   4.505600000e+04 >=   3.462100000e+04  23.2% (1890; 2195)
+1017361: mip =   4.505600000e+04 >=   3.467600000e+04  23.0% (1954; 2240)
Time used: 180.1 secs.  Memory used: 23.0 Mb.
+1047494: mip =   4.505600000e+04 >=   3.477200000e+04  22.8% (2004; 2300)
+1078084: mip =   4.505600000e+04 >=   3.481600000e+04  22.7% (2091; 2379)
+1106702: mip =   4.505600000e+04 >=   3.481600000e+04  22.7% (2152; 2438)
+1135385: mip =   4.505600000e+04 >=   3.481600000e+04  22.7% (2208; 2485)
+1165087: mip =   4.505600000e+04 >=   3.481600000e+04  22.7% (2263; 2530)
+1194982: mip =   4.505600000e+04 >=   3.488500000e+04  22.6% (2312; 2592)
+1226446: mip =   4.505600000e+04 >=   3.496300000e+04  22.4% (2368; 2667)
+1257173: mip =   4.505600000e+04 >=   3.503100000e+04  22.3% (2451; 2709)
+1287474: mip =   4.505600000e+04 >=   3.508600000e+04  22.1% (2538; 2741)
+1317471: mip =   4.505600000e+04 >=   3.515800000e+04  22.0% (2628; 2785)
+1346292: mip =   4.505600000e+04 >=   3.525000000e+04  21.8% (2656; 2855)
+1375023: mip =   4.505600000e+04 >=   3.532100000e+04  21.6% (2718; 2904)
Time used: 240.2 secs.  Memory used: 30.6 Mb.
+1404173: mip =   4.505600000e+04 >=   3.539400000e+04  21.4% (2771; 2969)
+1434562: mip =   4.505600000e+04 >=   3.549900000e+04  21.2% (2804; 3073)
+1463836: mip =   4.505600000e+04 >=   3.555100000e+04  21.1% (2831; 3118)
+1493305: mip =   4.505600000e+04 >=   3.561800000e+04  20.9% (2882; 3197)
+1524118: mip =   4.505600000e+04 >=   3.570400000e+04  20.8% (2938; 3293)
+1555375: mip =   4.505600000e+04 >=   3.579900000e+04  20.5% (3007; 3373)
+1585163: mip =   4.505600000e+04 >=   3.584000000e+04  20.5% (3024; 3443)
+1615708: mip =   4.505600000e+04 >=   3.584000000e+04  20.5% (3109; 3520)
+1644899: mip =   4.505600000e+04 >=   3.584000000e+04  20.5% (3160; 3613)
+1674196: mip =   4.505600000e+04 >=   3.584000000e+04  20.5% (3244; 3653)
+1703458: mip =   4.505600000e+04 >=   3.584000000e+04  20.5% (3297; 3720)
+1732804: mip =   4.505600000e+04 >=   3.584000000e+04  20.5% (3395; 3796)
Time used: 300.2 secs.  Memory used: 37.5 Mb.
+1762114: mip =   4.505600000e+04 >=   3.584000000e+04  20.5% (3458; 3862)
+1791512: mip =   4.505600000e+04 >=   3.584000000e+04  20.5% (3512; 3920)
+1821974: mip =   4.505600000e+04 >=   3.584000000e+04  20.5% (3585; 4011)
+1851747: mip =   4.505600000e+04 >=   3.584000000e+04  20.5% (3638; 4093)
+1880389: mip =   4.505600000e+04 >=   3.584000000e+04  20.5% (3691; 4165)
+1908778: mip =   4.505600000e+04 >=   3.584000000e+04  20.5% (3780; 4234)
+1936834: mip =   4.505600000e+04 >=   3.584000000e+04  20.5% (3875; 4353)
+1964344: mip =   4.505600000e+04 >=   3.584000000e+04  20.5% (3941; 4455)
+1993613: mip =   4.505600000e+04 >=   3.590100000e+04  20.3% (3954; 4564)
+2024230: mip =   4.505600000e+04 >=   3.596300000e+04  20.2% (3965; 4665)
+2054947: mip =   4.505600000e+04 >=   3.601700000e+04  20.1% (4004; 4750)
+2085823: mip =   4.505600000e+04 >=   3.605300000e+04  20.0% (4053; 4813)
Time used: 360.2 secs.  Memory used: 45.2 Mb.
+2116972: mip =   4.505600000e+04 >=   3.611500000e+04  19.8% (4073; 4940)
+2147837: mip =   4.505600000e+04 >=   3.617300000e+04  19.7% (4102; 5033)
+2179448: mip =   4.505600000e+04 >=   3.624200000e+04  19.6% (4149; 5148)
+2210638: mip =   4.505600000e+04 >=   3.631400000e+04  19.4% (4219; 5253)
+2240381: mip =   4.505600000e+04 >=   3.634500000e+04  19.3% (4149; 5486)
+2271260: mip =   4.505600000e+04 >=   3.640600000e+04  19.2% (4209; 5612)
+2300709: mip =   4.505600000e+04 >=   3.645500000e+04  19.1% (4244; 5714)
+2331039: mip =   4.505600000e+04 >=   3.649000000e+04  19.0% (4280; 5787)
+2361217: mip =   4.505600000e+04 >=   3.653100000e+04  18.9% (4342; 5878)
+2393171: mip =   4.505600000e+04 >=   3.654700000e+04  18.9% (4412; 5935)
+2425881: mip =   4.505600000e+04 >=   3.661400000e+04  18.7% (4440; 6067)
+2458921: mip =   4.505600000e+04 >=   3.663400000e+04  18.7% (4516; 6153)
Time used: 420.2 secs.  Memory used: 51.5 Mb.
+2492075: mip =   4.505600000e+04 >=   3.667600000e+04  18.6% (4591; 6257)
+2524624: mip =   4.505600000e+04 >=   3.670700000e+04  18.5% (4680; 6332)
+2556232: mip =   4.505600000e+04 >=   3.678600000e+04  18.4% (4714; 6466)
+2588375: mip =   4.505600000e+04 >=   3.681300000e+04  18.3% (4804; 6527)
+2620186: mip =   4.505600000e+04 >=   3.686400000e+04  18.2% (4890; 6698)
+2653781: mip =   4.505600000e+04 >=   3.686400000e+04  18.2% (4994; 6795)
+2682409: mip =   4.505600000e+04 >=   3.689700000e+04  18.1% (5019; 6903)
+2711741: mip =   4.505600000e+04 >=   3.694600000e+04  18.0% (5004; 7017)
+2743891: mip =   4.505600000e+04 >=   3.699600000e+04  17.9% (5106; 7120)
+2775813: mip =   4.505600000e+04 >=   3.703100000e+04  17.8% (5141; 7201)
+2807431: mip =   4.505600000e+04 >=   3.709000000e+04  17.7% (5214; 7315)
Time used: 480.3 secs.  Memory used: 58.1 Mb.
+2838866: mip =   4.505600000e+04 >=   3.715500000e+04  17.5% (5236; 7477)
+2869701: mip =   4.505600000e+04 >=   3.723500000e+04  17.4% (5287; 7611)
+2898593: mip =   4.505600000e+04 >=   3.731500000e+04  17.2% (5315; 7829)
+2927671: mip =   4.505600000e+04 >=   3.736500000e+04  17.1% (5251; 8109)
+2958265: mip =   4.505600000e+04 >=   3.739900000e+04  17.0% (5368; 8206)
+2988211: mip =   4.505600000e+04 >=   3.744700000e+04  16.9% (5508; 8379)
+3019674: mip =   4.505600000e+04 >=   3.749100000e+04  16.8% (5672; 8496)
+3050963: mip =   4.505600000e+04 >=   3.757900000e+04  16.6% (5687; 8654)
+3082381: mip =   4.505600000e+04 >=   3.766300000e+04  16.4% (5654; 9068)
+3113726: mip =   4.505600000e+04 >=   3.774900000e+04  16.2% (5684; 9366)
+3145480: mip =   4.505600000e+04 >=   3.781300000e+04  16.1% (5767; 9540)
+3178689: mip =   4.505600000e+04 >=   3.787600000e+04  15.9% (5873; 9706)
Time used: 540.4 secs.  Memory used: 64.0 Mb.
+3210550: mip =   4.505600000e+04 >=   3.788800000e+04  15.9% (5886; 9888)
+3241000: mip =   4.505600000e+04 >=   3.788800000e+04  15.9% (5993; 10005)
+3270456: mip =   4.505600000e+04 >=   3.788800000e+04  15.9% (6025; 10099)
+3300158: mip =   4.505600000e+04 >=   3.788800000e+04  15.9% (6066; 10202)
+3328675: mip =   4.505600000e+04 >=   3.788800000e+04  15.9% (6106; 10301)
+3360859: mip =   4.505600000e+04 >=   3.791700000e+04  15.8% (6201; 10408)
+3392140: mip =   4.505600000e+04 >=   3.794500000e+04  15.8% (6304; 10516)
+3423636: mip =   4.505600000e+04 >=   3.797700000e+04  15.7% (6341; 10673)
+3454335: mip =   4.505600000e+04 >=   3.799200000e+04  15.7% (6533; 10749)
+3485269: mip =   4.505600000e+04 >=   3.801800000e+04  15.6% (6633; 10873)
+3517548: mip =   4.505600000e+04 >=   3.801800000e+04  15.6% (6988; 10948)
+3552712: mip =   4.505600000e+04 >=   3.802300000e+04  15.6% (7141; 10998)
Time used: 600.4 secs.  Memory used: 72.4 Mb.
+3584432: mip =   4.505600000e+04 >=   3.807000000e+04  15.5% (7182; 11198)
+3615299: mip =   4.505600000e+04 >=   3.808900000e+04  15.5% (7330; 11266)
+3647065: mip =   4.505600000e+04 >=   3.811300000e+04  15.4% (7498; 11404)
+3680104: mip =   4.505600000e+04 >=   3.814300000e+04  15.3% (7591; 11570)
+3713196: mip =   4.505600000e+04 >=   3.817000000e+04  15.3% (7743; 11694)
+3745473: mip =   4.505600000e+04 >=   3.820200000e+04  15.2% (7805; 11883)
+3778361: mip =   4.505600000e+04 >=   3.825600000e+04  15.1% (7839; 12070)
+3811286: mip =   4.505600000e+04 >=   3.829000000e+04  15.0% (7959; 12215)
+3844890: mip =   4.505600000e+04 >=   3.830800000e+04  15.0% (8063; 12341)
+3877610: mip =   4.505600000e+04 >=   3.835500000e+04  14.9% (8132; 12508)
+3910028: mip =   4.505600000e+04 >=   3.839700000e+04  14.8% (8231; 12659)
+3944365: mip =   4.505600000e+04 >=   3.841200000e+04  14.7% (8325; 12772)
Time used: 660.4 secs.  Memory used: 80.0 Mb.
+3978025: mip =   4.505600000e+04 >=   3.844900000e+04  14.7% (8409; 12957)
+4009425: mip =   4.505600000e+04 >=   3.848900000e+04  14.6% (8445; 13273)
+4040830: mip =   4.505600000e+04 >=   3.850700000e+04  14.5% (8507; 13458)
+4072030: mip =   4.505600000e+04 >=   3.855400000e+04  14.4% (8519; 13692)
+4104305: mip =   4.505600000e+04 >=   3.859000000e+04  14.4% (8628; 13860)
+4134929: mip =   4.505600000e+04 >=   3.864100000e+04  14.2% (8641; 14092)
+4164747: mip =   4.505600000e+04 >=   3.869400000e+04  14.1% (8638; 14334)
+4196476: mip =   4.505600000e+04 >=   3.873500000e+04  14.0% (8689; 14494)
+4228971: mip =   4.505600000e+04 >=   3.878400000e+04  13.9% (8715; 14743)
+4260079: mip =   4.505600000e+04 >=   3.882000000e+04  13.8% (8734; 14987)
+4292526: mip =   4.505600000e+04 >=   3.886900000e+04  13.7% (8773; 15236)
+4323863: mip =   4.505600000e+04 >=   3.891200000e+04  13.6% (8747; 15492)
Time used: 720.4 secs.  Memory used: 85.6 Mb.
+4353318: mip =   4.505600000e+04 >=   3.891200000e+04  13.6% (8811; 15673)
+4383323: mip =   4.505600000e+04 >=   3.891200000e+04  13.6% (8902; 15822)
+4415004: mip =   4.505600000e+04 >=   3.891200000e+04  13.6% (8963; 15969)
+4444600: mip =   4.505600000e+04 >=   3.891200000e+04  13.6% (9042; 16141)
+4474018: mip =   4.505600000e+04 >=   3.891200000e+04  13.6% (9100; 16287)
+4502696: mip =   4.505600000e+04 >=   3.891200000e+04  13.6% (9149; 16496)
+4531292: mip =   4.505600000e+04 >=   3.891200000e+04  13.6% (9167; 16639)
+4560215: mip =   4.505600000e+04 >=   3.891200000e+04  13.6% (9202; 16765)
+4589213: mip =   4.505600000e+04 >=   3.891200000e+04  13.6% (9237; 16932)
+4618385: mip =   4.505600000e+04 >=   3.891200000e+04  13.6% (9248; 17061)
+4648005: mip =   4.505600000e+04 >=   3.891200000e+04  13.6% (9259; 17155)
+4676898: mip =   4.505600000e+04 >=   3.891200000e+04  13.6% (9274; 17197)
Time used: 780.4 secs.  Memory used: 95.0 Mb.
+4704590: mip =   4.505600000e+04 >=   3.891200000e+04  13.6% (9313; 17276)
+4733136: mip =   4.505600000e+04 >=   3.891300000e+04  13.6% (9364; 17322)
+4762605: mip =   4.505600000e+04 >=   3.898000000e+04  13.5% (9351; 17669)
+4793857: mip =   4.505600000e+04 >=   3.903900000e+04  13.4% (9333; 17992)
+4822883: mip =   4.505600000e+04 >=   3.909700000e+04  13.2% (9286; 18522)
+4854071: mip =   4.505600000e+04 >=   3.913600000e+04  13.1% (9331; 18869)
+4888574: mip =   4.505600000e+04 >=   3.914900000e+04  13.1% (9426; 18961)
+4921364: mip =   4.505600000e+04 >=   3.918900000e+04  13.0% (9454; 19180)
+4952777: mip =   4.505600000e+04 >=   3.919400000e+04  13.0% (9515; 19271)
+4983248: mip =   4.505600000e+04 >=   3.928100000e+04  12.8% (9563; 19647)
+5011656: mip =   4.505600000e+04 >=   3.936300000e+04  12.6% (9469; 20136)
+5040750: mip =   4.505600000e+04 >=   3.941200000e+04  12.5% (9398; 20563)
Time used: 840.5 secs.  Memory used: 97.3 Mb.
+5071658: mip =   4.505600000e+04 >=   3.946400000e+04  12.4% (9380; 20841)
+5101032: mip =   4.505600000e+04 >=   3.950400000e+04  12.3% (9375; 21064)
+5131933: mip =   4.505600000e+04 >=   3.953800000e+04  12.2% (9425; 21240)
+5161009: mip =   4.505600000e+04 >=   3.964700000e+04  12.0% (9349; 21719)
+5189628: mip =   4.505600000e+04 >=   3.974000000e+04  11.8% (9284; 22147)
+5219018: mip =   4.505600000e+04 >=   3.975600000e+04  11.8% (9278; 22221)
+5247883: mip =   4.505600000e+04 >=   3.979000000e+04  11.7% (9246; 22386)
+5278291: mip =   4.505600000e+04 >=   3.984200000e+04  11.6% (9228; 22617)
+5307869: mip =   4.505600000e+04 >=   3.993300000e+04  11.4% (9160; 23008)
+5337812: mip =   4.505600000e+04 >=   3.993600000e+04  11.4% (9143; 23348)
+5371215: mip =   4.505600000e+04 >=   3.993600000e+04  11.4% (9190; 23536)
+5403337: mip =   4.505600000e+04 >=   3.993600000e+04  11.4% (9203; 23733)
Time used: 900.5 secs.  Memory used: 97.9 Mb.
+5432430: mip =   4.505600000e+04 >=   3.993600000e+04  11.4% (9235; 24001)
+5460682: mip =   4.505600000e+04 >=   3.993600000e+04  11.4% (9255; 24238)
+5490392: mip =   4.505600000e+04 >=   3.993600000e+04  11.4% (9303; 24315)
+5521376: mip =   4.505600000e+04 >=   3.993600000e+04  11.4% (9351; 24421)
+5551399: mip =   4.505600000e+04 >=   3.994000000e+04  11.4% (9392; 24511)
+5583066: mip =   4.505600000e+04 >=   3.997400000e+04  11.3% (9435; 24696)
+5611221: mip =   4.505600000e+04 >=   4.003900000e+04  11.1% (9348; 25063)
+5641332: mip =   4.505600000e+04 >=   4.005600000e+04  11.1% (9376; 25160)
+5671176: mip =   4.505600000e+04 >=   4.012100000e+04  11.0% (9324; 25531)
+5701591: mip =   4.505600000e+04 >=   4.016600000e+04  10.9% (9305; 25756)
+5730699: mip =   4.505600000e+04 >=   4.024700000e+04  10.7% (9205; 26248)
+5757699: mip =   4.505600000e+04 >=   4.031000000e+04  10.5% (9157; 26512)
Time used: 960.5 secs.  Memory used: 101.3 Mb.
+5786796: mip =   4.505600000e+04 >=   4.041500000e+04  10.3% (9083; 26946)
+5816859: mip =   4.505600000e+04 >=   4.047100000e+04  10.2% (8975; 27317)
+5844901: mip =   4.505600000e+04 >=   4.048700000e+04  10.1% (8798; 27627)
+5875788: mip =   4.505600000e+04 >=   4.054800000e+04  10.0% (8777; 27985)
+5905662: mip =   4.505600000e+04 >=   4.069300000e+04   9.7% (8654; 28551)
+5937452: mip =   4.505600000e+04 >=   4.079700000e+04   9.5% (8608; 28929)
+5966407: mip =   4.505600000e+04 >=   4.088600000e+04   9.3% (8611; 29620)
+5995768: mip =   4.505600000e+04 >=   4.096000000e+04   9.1% (8593; 30256)
+6025035: mip =   4.505600000e+04 >=   4.096000000e+04   9.1% (8702; 30510)
+6055379: mip =   4.505600000e+04 >=   4.096000000e+04   9.1% (8789; 30718)
+6083672: mip =   4.505600000e+04 >=   4.096000000e+04   9.1% (8890; 30968)
+6113522: mip =   4.505600000e+04 >=   4.096000000e+04   9.1% (8962; 31172)
Time used: 1020.5 secs.  Memory used: 102.6 Mb.
+6144542: mip =   4.505600000e+04 >=   4.096000000e+04   9.1% (8992; 31363)
+6173394: mip =   4.505600000e+04 >=   4.096000000e+04   9.1% (9021; 31566)
+6202711: mip =   4.505600000e+04 >=   4.096000000e+04   9.1% (9041; 31768)
+6231728: mip =   4.505600000e+04 >=   4.096000000e+04   9.1% (9085; 31973)
+6262344: mip =   4.505600000e+04 >=   4.096000000e+04   9.1% (9109; 32214)
+6293248: mip =   4.505600000e+04 >=   4.096000000e+04   9.1% (9167; 32370)
+6322844: mip =   4.505600000e+04 >=   4.096000000e+04   9.1% (9215; 32563)
+6353557: mip =   4.505600000e+04 >=   4.096000000e+04   9.1% (9258; 32741)
+6384614: mip =   4.505600000e+04 >=   4.096000000e+04   9.1% (9319; 32948)
+6414184: mip =   4.505600000e+04 >=   4.096000000e+04   9.1% (9369; 33155)
+6443084: mip =   4.505600000e+04 >=   4.096000000e+04   9.1% (9363; 33389)
+6472510: mip =   4.505600000e+04 >=   4.096000000e+04   9.1% (9400; 33601)
Time used: 1080.5 secs.  Memory used: 111.6 Mb.
+6501839: mip =   4.505600000e+04 >=   4.096000000e+04   9.1% (9462; 33759)
+6529915: mip =   4.505600000e+04 >=   4.096000000e+04   9.1% (9504; 33975)
+6559175: mip =   4.505600000e+04 >=   4.096000000e+04   9.1% (9524; 34174)
+6588499: mip =   4.505600000e+04 >=   4.096000000e+04   9.1% (9575; 34305)
+6617012: mip =   4.505600000e+04 >=   4.096000000e+04   9.1% (9625; 34467)
+6645943: mip =   4.505600000e+04 >=   4.096000000e+04   9.1% (9674; 34722)
+6675143: mip =   4.505600000e+04 >=   4.096000000e+04   9.1% (9714; 34853)
+6703919: mip =   4.505600000e+04 >=   4.096000000e+04   9.1% (9718; 34999)
+6732811: mip =   4.505600000e+04 >=   4.096000000e+04   9.1% (9769; 35138)
+6761689: mip =   4.505600000e+04 >=   4.096000000e+04   9.1% (9793; 35293)
+6789753: mip =   4.505600000e+04 >=   4.096000000e+04   9.1% (9808; 35526)
+6818761: mip =   4.505600000e+04 >=   4.096000000e+04   9.1% (9853; 35691)
Time used: 1140.5 secs.  Memory used: 120.3 Mb.
+6847754: mip =   4.505600000e+04 >=   4.096000000e+04   9.1% (9880; 35858)
+6875270: mip =   4.505600000e+04 >=   4.096000000e+04   9.1% (9885; 36115)
+6904790: mip =   4.505600000e+04 >=   4.096000000e+04   9.1% (9922; 36310)
+6934543: mip =   4.505600000e+04 >=   4.096000000e+04   9.1% (9944; 36529)
+6963042: mip =   4.505600000e+04 >=   4.096000000e+04   9.1% (9997; 36738)
+6992072: mip =   4.505600000e+04 >=   4.096000000e+04   9.1% (10006; 36997)
+7020712: mip =   4.505600000e+04 >=   4.096000000e+04   9.1% (10055; 37187)
+7050179: mip =   4.505600000e+04 >=   4.096000000e+04   9.1% (10089; 37380)
+7079667: mip =   4.505600000e+04 >=   4.096000000e+04   9.1% (10129; 37577)
+7108304: mip =   4.505600000e+04 >=   4.096000000e+04   9.1% (10155; 37839)
+7137378: mip =   4.505600000e+04 >=   4.100700000e+04   9.0% (10156; 38088)
+7164798: mip =   4.505600000e+04 >=   4.108700000e+04   8.8% (10033; 38600)
Time used: 1200.5 secs.  Memory used: 127.5 Mb.
+7193217: mip =   4.505600000e+04 >=   4.119600000e+04   8.6% (9943; 39067)
+7222667: mip =   4.505600000e+04 >=   4.134900000e+04   8.2% (9810; 39807)
+7254975: mip =   4.505600000e+04 >=   4.139000000e+04   8.1% (10012; 40106)
+7287715: mip =   4.505600000e+04 >=   4.139000000e+04   8.1% (10285; 40294)
+7320900: mip =   4.505600000e+04 >=   4.139000000e+04   8.1% (10506; 40482)
+7352442: mip =   4.505600000e+04 >=   4.139500000e+04   8.1% (10708; 40757)
+7380282: mip =   4.505600000e+04 >=   4.144600000e+04   8.0% (10820; 41187)
+7410138: mip =   4.505600000e+04 >=   4.144600000e+04   8.0% (11139; 41500)
+7440201: mip =   4.505600000e+04 >=   4.144600000e+04   8.0% (11421; 41900)
+7471986: mip =   4.505600000e+04 >=   4.144600000e+04   8.0% (11679; 42267)
+7502760: mip =   4.505600000e+04 >=   4.144600000e+04   8.0% (11926; 42647)
+7534856: mip =   4.505600000e+04 >=   4.144600000e+04   8.0% (12182; 42989)
Time used: 1260.5 secs.  Memory used: 135.9 Mb.
+7566287: mip =   4.505600000e+04 >=   4.144600000e+04   8.0% (12430; 43346)
+7596789: mip =   4.505600000e+04 >=   4.144600000e+04   8.0% (12648; 43745)
+7629890: mip =   4.505600000e+04 >=   4.144600000e+04   8.0% (12853; 44057)
+7660433: mip =   4.505600000e+04 >=   4.144600000e+04   8.0% (13098; 44434)
+7691704: mip =   4.505600000e+04 >=   4.144600000e+04   8.0% (13372; 44764)
+7722360: mip =   4.505600000e+04 >=   4.144600000e+04   8.0% (13610; 45138)
+7755173: mip =   4.505600000e+04 >=   4.144600000e+04   8.0% (13869; 45449)
+7786535: mip =   4.505600000e+04 >=   4.144600000e+04   8.0% (14113; 45782)
+7817357: mip =   4.505600000e+04 >=   4.144600000e+04   8.0% (14304; 46130)
+7848057: mip =   4.505600000e+04 >=   4.144600000e+04   8.0% (14556; 46486)
+7881648: mip =   4.505600000e+04 >=   4.144600000e+04   8.0% (14821; 46754)
+7914021: mip =   4.505600000e+04 >=   4.144600000e+04   8.0% (15018; 47067)
Time used: 1320.5 secs.  Memory used: 149.3 Mb.
+7945590: mip =   4.505600000e+04 >=   4.144600000e+04   8.0% (15228; 47384)
+7974767: mip =   4.505600000e+04 >=   4.144600000e+04   8.0% (15495; 47708)
+8005497: mip =   4.505600000e+04 >=   4.144600000e+04   8.0% (15699; 48029)
+8034946: mip =   4.505600000e+04 >=   4.144600000e+04   8.0% (15926; 48374)
+8064228: mip =   4.505600000e+04 >=   4.144600000e+04   8.0% (16159; 48690)
+8095792: mip =   4.505600000e+04 >=   4.144600000e+04   8.0% (16405; 48963)
+8124769: mip =   4.505600000e+04 >=   4.145500000e+04   8.0% (16362; 49576)
+8160614: mip =   4.505600000e+04 >=   4.147200000e+04   8.0% (16442; 49770)
+8200585: mip =   4.505600000e+04 >=   4.147400000e+04   8.0% (16454; 49958)
+8235067: mip =   4.505600000e+04 >=   4.148800000e+04   7.9% (16557; 50163)
+8267223: mip =   4.505600000e+04 >=   4.149300000e+04   7.9% (16547; 50491)
+8301972: mip =   4.505600000e+04 >=   4.150400000e+04   7.9% (16651; 50656)
Time used: 1380.5 secs.  Memory used: 160.2 Mb.
+8332000: mip =   4.505600000e+04 >=   4.153100000e+04   7.8% (16768; 50965)
+8363439: mip =   4.505600000e+04 >=   4.153900000e+04   7.8% (16706; 51261)
+8389250: mip =   4.505600000e+04 >=   4.154600000e+04   7.8% (16717; 51634)
+8409145: mip =   4.505600000e+04 >=   4.156300000e+04   7.8% (16390; 52632)
+8433237: mip =   4.505600000e+04 >=   4.158500000e+04   7.7% (16267; 53060)
+8455727: mip =   4.505600000e+04 >=   4.160000000e+04   7.7% (16097; 53669)
+8475213: mip =   4.505600000e+04 >=   4.160500000e+04   7.7% (15729; 54151)
+8490436: mip =   4.505600000e+04 >=   4.163700000e+04   7.6% (15394; 54929)
+8504071: mip =   4.505600000e+04 >=   4.166500000e+04   7.5% (15029; 55993)
+8532330: mip =   4.505600000e+04 >=   4.167100000e+04   7.5% (14853; 56424)
+8553918: mip =   4.505600000e+04 >=   4.168900000e+04   7.5% (14605; 57117)
Time used: 1440.5 secs.  Memory used: 164.4 Mb.
+8576512: mip =   4.505600000e+04 >=   4.171700000e+04   7.4% (14388; 57866)
+8582535: mip =   4.505600000e+04 >=   4.177100000e+04   7.3% (13623; 60302)
+8594175: mip =   4.505600000e+04 >=   4.182100000e+04   7.2% (13009; 61966)
+8622931: mip =   4.505600000e+04 >=   4.189100000e+04   7.0% (12915; 62535)
+8651256: mip =   4.505600000e+04 >=   4.198400000e+04   6.8% (12808; 62982)
+8677745: mip =   4.505600000e+04 >=   4.198400000e+04   6.8% (12911; 63574)
+8705725: mip =   4.505600000e+04 >=   4.198400000e+04   6.8% (13010; 64087)
+8734333: mip =   4.505600000e+04 >=   4.198400000e+04   6.8% (13132; 64603)
+8762490: mip =   4.505600000e+04 >=   4.198400000e+04   6.8% (13193; 65108)
+8789216: mip =   4.505600000e+04 >=   4.198400000e+04   6.8% (13186; 65690)
+8816177: mip =   4.505600000e+04 >=   4.198400000e+04   6.8% (13236; 66258)
+8843577: mip =   4.505600000e+04 >=   4.198400000e+04   6.8% (13239; 66867)
Time used: 1500.5 secs.  Memory used: 164.4 Mb.
+8869529: mip =   4.505600000e+04 >=   4.198400000e+04   6.8% (13104; 67551)
+8896525: mip =   4.505600000e+04 >=   4.198400000e+04   6.8% (13139; 67915)
+8927344: mip =   4.505600000e+04 >=   4.198400000e+04   6.8% (13255; 68098)
+8954740: mip =   4.505600000e+04 >=   4.198400000e+04   6.8% (13308; 68452)
+8984131: mip =   4.505600000e+04 >=   4.198400000e+04   6.8% (13351; 68682)
+9013813: mip =   4.505600000e+04 >=   4.198400000e+04   6.8% (13400; 68856)
+9044085: mip =   4.505600000e+04 >=   4.198400000e+04   6.8% (13471; 69074)
+9072772: mip =   4.505600000e+04 >=   4.198400000e+04   6.8% (13477; 69348)
+9099920: mip =   4.505600000e+04 >=   4.198400000e+04   6.8% (13539; 69641)
+9124994: mip =   4.505600000e+04 >=   4.198400000e+04   6.8% (13603; 70000)
+9149268: mip =   4.505600000e+04 >=   4.198400000e+04   6.8% (13610; 70410)
+9178188: mip =   4.505600000e+04 >=   4.198400000e+04   6.8% (13682; 70673)
Time used: 1560.5 secs.  Memory used: 169.2 Mb.
+9204987: mip =   4.505600000e+04 >=   4.198400000e+04   6.8% (13666; 70977)
+9232405: mip =   4.505600000e+04 >=   4.198400000e+04   6.8% (13678; 71145)
+9260030: mip =   4.505600000e+04 >=   4.198400000e+04   6.8% (13698; 71297)
+9287263: mip =   4.505600000e+04 >=   4.198400000e+04   6.8% (13720; 71458)
+9314875: mip =   4.505600000e+04 >=   4.203100000e+04   6.7% (13616; 71936)
+9340352: mip =   4.505600000e+04 >=   4.210000000e+04   6.6% (13513; 72610)
+9371328: mip =   4.505600000e+04 >=   4.210700000e+04   6.5% (13682; 72881)
+9396555: mip =   4.505600000e+04 >=   4.217000000e+04   6.4% (13694; 73590)
+9420789: mip =   4.505600000e+04 >=   4.219100000e+04   6.4% (13752; 74006)
+9443473: mip =   4.505600000e+04 >=   4.220400000e+04   6.3% (13738; 75336)
+9463302: mip =   4.505600000e+04 >=   4.227100000e+04   6.2% (13487; 76782)
+9489228: mip =   4.505600000e+04 >=   4.236000000e+04   6.0% (13352; 77718)
Time used: 1620.5 secs.  Memory used: 170.3 Mb.
+9517747: mip =   4.505600000e+04 >=   4.238600000e+04   5.9% (13319; 78557)
+9549742: mip =   4.505600000e+04 >=   4.242300000e+04   5.8% (13601; 78859)
+9581796: mip =   4.505600000e+04 >=   4.242300000e+04   5.8% (13912; 79099)
+9615064: mip =   4.505600000e+04 >=   4.242300000e+04   5.8% (14199; 79306)
+9642790: mip =   4.505600000e+04 >=   4.243500000e+04   5.8% (14205; 80089)
+9674877: mip =   4.505600000e+04 >=   4.244300000e+04   5.8% (14242; 80195)
+9703327: mip =   4.505600000e+04 >=   4.245700000e+04   5.8% (14404; 80595)
+9731401: mip =   4.505600000e+04 >=   4.245700000e+04   5.8% (14737; 80903)
+9759717: mip =   4.505600000e+04 >=   4.245700000e+04   5.8% (15121; 81204)
+9787026: mip =   4.505600000e+04 >=   4.245700000e+04   5.8% (15446; 81531)
+9814478: mip =   4.505600000e+04 >=   4.245700000e+04   5.8% (15744; 81832)
+9840771: mip =   4.505600000e+04 >=   4.245700000e+04   5.8% (16059; 82157)
Time used: 1680.5 secs.  Memory used: 174.9 Mb.
+9866764: mip =   4.505600000e+04 >=   4.245700000e+04   5.8% (16374; 82463)
+9894637: mip =   4.505600000e+04 >=   4.245700000e+04   5.8% (16680; 82770)
+9925052: mip =   4.505600000e+04 >=   4.245700000e+04   5.8% (16985; 83067)
+9955444: mip =   4.505600000e+04 >=   4.245700000e+04   5.8% (17265; 83353)
+9985271: mip =   4.505600000e+04 >=   4.247500000e+04   5.7% (17363; 83692)
+10000652: mip =   4.505600000e+04 >=   4.249200000e+04   5.7% (17091; 84468)
+10021754: mip =   4.505600000e+04 >=   4.250300000e+04   5.7% (16918; 84896)
+10039881: mip =   4.505600000e+04 >=   4.251500000e+04   5.6% (16877; 85481)
+10059809: mip =   4.505600000e+04 >=   4.252000000e+04   5.6% (16554; 86719)
+10071038: mip =   4.505600000e+04 >=   4.254100000e+04   5.6% (16052; 87820)
+10101043: mip =   4.505600000e+04 >=   4.254300000e+04   5.6% (16363; 88064)
+10132579: mip =   4.505600000e+04 >=   4.254300000e+04   5.6% (16762; 88274)
Time used: 1740.5 secs.  Memory used: 181.2 Mb.
+10162493: mip =   4.505600000e+04 >=   4.254300000e+04   5.6% (17194; 88490)
+10192673: mip =   4.505600000e+04 >=   4.254300000e+04   5.6% (17671; 88691)
+10223347: mip =   4.505600000e+04 >=   4.254300000e+04   5.6% (18124; 88882)
+10254700: mip =   4.505600000e+04 >=   4.254300000e+04   5.6% (18582; 89063)
+10283733: mip =   4.505600000e+04 >=   4.254300000e+04   5.6% (19073; 89255)
+10312750: mip =   4.505600000e+04 >=   4.254300000e+04   5.6% (19531; 89444)
+10342571: mip =   4.505600000e+04 >=   4.254300000e+04   5.6% (19945; 89634)
+10372086: mip =   4.505600000e+04 >=   4.254300000e+04   5.6% (20366; 89832)
+10400084: mip =   4.505600000e+04 >=   4.254300000e+04   5.6% (20867; 90032)
+10427939: mip =   4.505600000e+04 >=   4.254300000e+04   5.6% (21289; 90234)
+10456753: mip =   4.505600000e+04 >=   4.254300000e+04   5.6% (21770; 90422)
+10484401: mip =   4.505600000e+04 >=   4.254300000e+04   5.6% (22192; 90624)
